9777
9777
8369
8369
8369
8369
8369
8369
8369
8369
8369
8369
8369
8369
8369
8369
8369
8369
8369
8369
8369
8369
8369
8369
8369
8369
8369
8369
8369
8369
8369
8369
8369
8369
8369
8369
8369
8369
8369
8369
8369
8369
8369
8369
8369
8369
8369
8369
8369
8369
8369
8369
8369
8369
8369
8369
8369
8369
8369
8369
8369
8369
8295
8295
8295
8295
8295
8295
8295
8295
8295
7843
7843
7843
7843
7843
7843
7843
7843
7843
7843
7843
7843
7843
7843
7843
7843
7843
7843
7843
7843
7843
7843
7843
7843
7843
7843
7843
7843
7843
7843
7843
7843
7843
7843
7843
7843
7843
7843
7843
7843
7843
7843
7843
7843
7843
7843
7843
7843
7843
7843
7843
7843
7843
7843
7843
7843
7843
7843
7843
7843
7843
7843
7843
7843
7843
7843
7843
7843
7843
7843
7843
7843
7843
7843
7843
7843
7843
7843
7843
7843
7843
7843
7843
7843
7843
7843
7843
7843
7843
7843
7843
7843
7843
7843
7843
7843
7843
7843
7843
7843
7843
7843
7843
7843
7843
7843
7843
7843
7843
7843
7843
7843
7843
7843
7843
7843
7843
7843
7843
7843
7843
7843
7843
7843
7843
7843
7843
7843
7843
7843
7843
7843
7843
7843
7843
7843
7843
7843
7843
7843
7843
7843
7843
7843
7843
7843
7843
7843
7843
7843
7843
7843
7843
7843
7843
7843
7843
7843
7843
7843
7843
7843
7843
7843
7843
7843
7843
7843
7843
7843
7843
7843
7843
7843
7843
7843
7843
7843
7843
7843
7843
7843
7843
7843
7843
7843
7843
7843
7843
7843
7843
7843
7843
7843
7843
7843
7843
7843
7843
7843
7843
7843
7843
7843
7843
7843
7843
7843
7843
7843
7843
7843
7843
7843
7843
7843
7843
7843
7843
7843
7843
7843
7843
7843
7843
7843
7843
7843
7843
7843
7843
7843
7843
7843
7843
7843
7843
7843
7843
7843
7843
7843
7843
7843
7843
7843
7843
7843
7843
7843
7843
7843
7843
7843
7843
7843
7843
7843
7843
7843
7843
7843
7843
7843
7843
7843
7843
7843
7843
7843
7843
7843
7843
7843
7843
7843
7843
7843
7843
7843
7843
7843
7843
7843
7843
7843
7843
7843
7843
7843
7843
7843
7843
7843
7843
7843
7843
7843
7843
7843
7843
7843
7843
7843
7843
7843
7843
7843
7843
7843
7843
7843
7843
7843
7843
7843
7843
7843
7843
7843
7843
7843
7843
7843
7843
7843
7843
7843
7843
7843
7843
7843
7843
7843
7843
7843
7843
7843
7843
7843
7843
7843
7843
7843
7843
7843
7843
7843
7843
7843
7843
7843
7843
7843
7843
7843
7843
7843
7843
7843
7843
7843
7843
7843
7843
7843
7843
7843
7843
7843
7843
7843
7843
7843
7843
7843
7843
7843
7843
7843
7843
7843
7843
7843
7843
7843
7843
7843
7843
7843
7843
7843
7843
7843
7843
7843
7843
7843
7843
7843
7843
7843
7843
7843
7843
7843
7843
7843
7843
7843
7843
7843
7843
7843
7843
7843
7843
7843
7843
7843
7843
7843
7843
7843
7843
7843
7843
7843
7843
7843
7843
7843
7843
7843
7843
7843
7843
7843
7843
7843
7843
7843
7843
7843
7843
7843
7843
7843
7843
7843
7843
7843
7843
7843
7843
7843
7843
7843
7843
7843
7843
7843
7843
7843
7843
7843
7843
7843
7843
7843
7843
7843
7843
7843
7843
7843
7843
7843
7843
7843
7843
7843
7843
7843
7843
7843
7843
7843
7843
7843
7843
7843
7843
7843
7843
7843
7843
7843
7843
7843
7843
7843
7843
7843
7843
7843
7843
7843
7843
7843
7843
7843
7843
7843
7843
7843
7843
7843
7843
7843
7843
7843
7843
7843
7843
7843
7843
7843
7843
7843
7843
7843
7843
7843
7843
7843
7843
7843
7843
7843
7843
7843
7843
7843
7843
7843
7843
7843
7843
7843
7843
7843
7843
7843
7843
7843
7843
7843
7843
7843
7843
7843
7843
7843
7843
7843
7843
7843
7843
7843
7843
7843
7843
7843
7843
7843
7843
7843
7843
7843
7843
7843
7843
7843
7843
7843
7843
7843
7843
7843
7843
7843
7843
7843
7843
7843
7843
7843
7843
7843
7843
7843
7843
7843
7843
7843
7843
7843
7843
7843
7843
7843
7843
7843
7843
7843
7843
7843
7843
7843
7843
7843
7843
7843
7843
7843
7843
7843
7843
7843
7843
7843
7843
7843
7843
7843
7843
7843
7843
7843
7843
7843
7843
7843
7843
7843
7843
7843
7843
7843
7843
7843
7843
7843
7843
7843
7843
7843
7843
7843
7843
7843
7843
7843
7843
7843
7843
7843
7843
7843
7843
7843
7843
7843
7843
7843
7843
7843
7843
7843
7843
7843
7843
7843
7843
7843
7843
7843
7843
7843
7843
7843
7843
7843
7843
7843
7843
7843
7843
7843
7843
7843
7843
7843
7843
7843
7843
7843
7843
7843
7843
7843
7843
7843
7843
7843
7843
7843
7843
7843
7843
7843
7843
7843
7843
7843
7843
7843
7843
7843
7843
7843
7843
7843
7843
7843
7843
7843
7843
7843
7843
7843
7843
7843
7843
7843
7843
7843
7843
7843
7843
7843
7843
7843
7843
7843
7843
7843
7843
7843
7843
7843
7843
7843
7843
7843
7843
7843
7843
7843
7843
7843
7843
7843
7843
7843
7843
7843
7843
7843
7843
7843
7843
7843
7843
7843
7843
7843
7843
7843
7843
7843
7843
7843
7843
7843
7843
7843
7843
7843
7843
7843
7843
7843
7843
7843
7843
7843
7843
7843
7843
7843
7843
7843
7843
7843
7843
7843
7843
7843
7843
7843
7843
7843
7843
7843
7843
7843
7843
7843
7843
7843
7843
7843
7843
7843
7843
7843
7843
7843
7843
7843
7843
7843
7843
7843
7843
7843
7843
7843
7843
7843
7843
7843
7843
7843
7843
7843
7843
7843
7843
7843
7843
7843
7843
7843
7843
7843
7843
7843
7843
7843
7843
7843
7843
7843
7843
7843
7843
7843
7843
7843
7843
7843
7843
7843
7843
7843
7843
7843
7843
7843
7843
7843
7843
7843
7843
7843
7843
7843
7843
7843
7843
7843
7843
7843
7843
7843
7843
7843
7843
7843
7843
7843
7843
7843
7843
7843
7843
7843
7843
7843
7843
7843
7843
7843
7843
7843
7843
7843
7843
7843
7843
7843
7843
7843
7843
7843
7843
7843
7843
7843
7843
7843
7843
7843
7843
7843
7843
7843
7843
7843
7843
7843
7843
7843
7843
7843
7843
7843
7843
7843
7843
7843
7843
7843
7843
7843
7843
7843
7843
7843
7843
7843
7843
7843
7843
7843
7843
7843
7843
7843
7843
7843
7843
7843
7843
7843
7843
7843
7843
7843
7843
7843
7843
7843
7843
7843
7843
7843
7843
7843
7843
7843
7843
7843
7843
7843
7843
7843
7843
7843
7843
7843
7843
7843
7843
7843
7843
7843
7843
7843
7843
7843
7843
7843
7843
7843
7843
7843
7843
7843
7843
7843
7843
7843
7843
7843
7843
7843
7843
7843
7843
7843
7843
7843
7843
7843
7843
7843
7843
7843
7843
7843
7843
7843
7843
7843
7843
7843
7843
7843
7843
7843
7843
7843
7843
7843
7843
7843
7843
7843
7843
7843
7843
7843
7843
7843
7843
7843
7843
7843
7843
7843
7843
7843
7843
7843
7843
7843
7843
7843
7843
7843
7843
7843
7843
7843
7843
7843
7843
7843
7843
7843
7843
7843
7843
7843
7843
7843
7843
7843
7843
7843
7843
7843
7843
7843
7843
7843
7843
7843
7843
7843
7843
7843
7843
7843
7843
7843
7843
7843
7843
7843
7843
7843
7843
7843
7843
7843
7843
7843
7843
7843
7843
7843
7843
7843
7843
7843
7843
7843
7843
7843
7843
7843
7843
7843
7843
7843
7843
7843
7843
7843
7843
7843
7843
7843
7843
7843
7843
7843
7843
7843
7843
7843
7843
7843
7843
7843
7843
7843
7843
7843
7843
7843
7843
7843
7843
7843
7843
7843
7843
7843
7843
7843
7843
7843
7843
7843
7843
7843
7843
7843
7843
7843
7843
7843
7843
7843
7843
7843
7843
7843
7843
7843
7843
7843
7843
7843
7843
7843
7843
7843
7843
7843
7843
7843
7843
7843
7843
7843
7843
7843
7843
7843
7843
7843
7843
7843
7843
7843
7843
7843
7843
7843
7843
7843
7843
7843
7843
7843
7843
7843
7843
7843
7843
7843
7843
7843
7843
7843
7843
7843
7843
7843
7843
7843
7843
7843
7843
7843
7843
7843
7843
7843
7843
7843
7843
7843
7843
7843
7843
7843
7843
7843
7843
7843
7843
7843
7843
7843
7843
7843
7843
7843
7843
7843
7843
7843
7843
7843
7843
7843
7843
7843
7843
7843
7843
7843
7843
7843
7843
7843
7843
7843
7843
7843
7843
7843
7843
7843
7843
7843
7843
7843
7843
7843
7843
7843
7843
7843
7843
7843
7843
7843
7843
7843
7843
7843
7843
7843
7843
7843
7843
7843
7843
7843
7843
7843
7843
7843
7843
7843
7843
7843
7843
7843
7843
7843
7843
7843
7843
7843
7843
7843
7843
7843
7843
7843
7843
7843
7843
7843
7843
7843
7843
7843
7843
7843
7843
7843
7843
7843
7843
7843
7843
7843
7843
7843
7843
7843
7843
7843
7843
7843
7843
7843
7843
7843
7843
7843
7843
7843
7843
7843
7843
7843
7843
7843
7843
7843
7843
7843
7843
7843
7843
7843
7843
7843
7843
7843
7843
7843
7843
7843
7843
7843
7843
7843
7843
7843
7843
7843
7843
7843
7843
7843
7843
7843
7843
7843
7843
7843
7843
7843
7843
7843
7843
7843
7843
7843
7843
7843
7843
7843
7843
7843
7843
7843
7843
7843
7843
7843
7843
7843
7843
7843
7843
7843
7843
7843
7843
7843
7843
7843
7843
7843
7843
7843
7843
7843
7843
7843
7843
7843
7843
7843
7843
7843
7843
7843
7843
7843
7843
7843
7843
7843
7843
7843
7843
7843
7843
7843
7843
7843
7843
7843
7843
7843
7843
7843
7843
7843
7843
7843
7843
7843
7843
7843
7843
7843
7843
7843
7843
7843
7843
7843
7843
7843
7843
7843
7843
7843
7843
7843
7843
7843
7843
7843
7843
7843
7843
7843
7843
7843
7843
7843
7843
7843
7843
7843
7843
7843
7843
7843
7843
7843
7843
7843
7843
7843
7843
7843
7843
7843
7843
7843
7843
7843
7843
7843
7843
7843
7843
7843
7843
7843
7843
7843
7843
7843
7843
7843
7843
7843
7843
7843
7843
7843
7843
7843
7843
7843
7843
7843
7843
7843
7843
7843
7843
7843
7843
7843
7843
7843
7843
7843
7843
7843
7843
7843
7843
7843
7843
7843
7843
7843
7843
7843
7843
7843
7843
7843
7843
7843
7843
7843
7843
7843
7843
7843
7843
7843
7843
7843
7843
7843
7843
7843
7843
7843
7843
7843
7843
7843
7843
7843
7843
7843
7843
7843
7843
7843
7843
7843
7843
7843
7843
7843
7843
7843
7843
7843
7843
7843
7843
7843
7843
7843
7843
7843
7843
7843
7843
7843
7843
7843
7843
7843
7843
7843
7843
7843
7843
7843
7843
7843
7843
7843
7843
7843
7843
7843
7843
7843
7843
7843
7843
7843
7843
7843
7843
7843
7843
7843
7843
7843
7843
7843
7843
7843
7843
7843
7843
7843
7843
7843
7843
7843
7843
7843
7843
7843
7843
7843
7843
7843
7843
7843
7843
7843
7843
7843
7843
7843
7843
7843
7843
7843
7843
7843
7843
7843
7843
7843
7843
7843
7843
7843
7843
7843
7843
7843
7843
7843
7843
7843
7843
7843
7843
7843
7843
7843
7843
7843
7843
7843
7843
7843
7843
7843
7843
7843
7843
7843
7843
7843
7843
7843
7843
7843
7843
7843
7843
7843
7843
7843
7843
7843
7843
7843
7843
7843
7843
7843
7843
7843
7843
7843
7843
7843
7843
7843
7843
7843
7843
7843
7843
7843
7843
7843
7843
7843
7843
7843
7843
7843
7843
7843
7843
7843
7843
7843
7843
7843
7843
7843
7843
7843
7843
7843
7843
7843
7843
7843
7843
7843
7843
7843
7843
7843
7843
7843
7843
7843
7843
7843
7843
7843
7843
7843
7843
7843
7843
7843
7843
7843
7843
7843
7843
7843
7843
7843
7843
7843
7843
7843
7843
7843
7843
7843
7843
7843
7843
7843
7843
7843
7843
7843
7843
7843
7843
7843
7843
7843
7843
7843
7843
7843
7843
7843
7843
7843
7843
7843
7843
7843
7843
7843
7843
7843
7843
7843
7843
7843
7843
7843
7843
7843
7843
7843
7843
7843
7843
7843
7843
7843
7843
7843
7843
7843
7843
7843
7843
7843
7843
7843
